NAME          DCAP_3_3_2_500_SS345
ROWS
 N  OBJ
 L  CON1
 L  CON2
 L  CON3
 L  CON4
 L  CON5
 L  CON6
 L  CON7
 L  CON8
 L  CON9
 L  CON10
 L  CON11
 L  CON12
 E  CON13
 E  CON14
 E  CON15
 E  CON16
 E  CON17
 E  CON18
COLUMNS
    x[1,1]    OBJ       6.180167      CON1      1.000000    
    x[1,1]    CON7      -1.000000     CON8      -1.000000   
    x[1,2]    OBJ       5.039546      CON2      1.000000    
    x[1,2]    CON8      -1.000000   
    x[2,1]    OBJ       6.732585      CON3      1.000000    
    x[2,1]    CON9      -1.000000     CON10     -1.000000   
    x[2,2]    OBJ       7.443064      CON4      1.000000    
    x[2,2]    CON10     -1.000000   
    x[3,1]    OBJ       6.563535      CON5      1.000000    
    x[3,1]    CON11     -1.000000     CON12     -1.000000   
    x[3,2]    OBJ       6.054841      CON6      1.000000    
    x[3,2]    CON12     -1.000000   
    MARKER    'MARKER'                'INTORG'
    u[1,1]    OBJ       48.076654     CON1      -1.000000   
    u[1,2]    OBJ       49.466655     CON2      -1.000000   
    u[2,1]    OBJ       49.996186     CON3      -1.000000   
    u[2,2]    OBJ       32.230043     CON4      -1.000000   
    u[3,1]    OBJ       20.066487     CON5      -1.000000   
    u[3,2]    OBJ       27.484319     CON6      -1.000000   
    y[1,1,1]  OBJ       9.590576      CON7      1.087647    
    y[1,1,1]  CON13     1.000000    
    y[1,1,2]  OBJ       8.070895      CON8      1.062108    
    y[1,1,2]  CON14     1.000000    
    y[1,2,1]  OBJ       5.457961      CON7      0.550946    
    y[1,2,1]  CON15     1.000000    
    y[1,2,2]  OBJ       8.786890      CON8      0.647151    
    y[1,2,2]  CON16     1.000000    
    y[1,3,1]  OBJ       8.982726      CON7      1.226845    
    y[1,3,1]  CON17     1.000000    
    y[1,3,2]  OBJ       5.167638      CON8      0.653071    
    y[1,3,2]  CON18     1.000000    
    y[2,1,1]  OBJ       6.401446      CON9      1.087647    
    y[2,1,1]  CON13     1.000000    
    y[2,1,2]  OBJ       6.004266      CON10     1.062108    
    y[2,1,2]  CON14     1.000000    
    y[2,2,1]  OBJ       9.776718      CON9      0.550946    
    y[2,2,1]  CON15     1.000000    
    y[2,2,2]  OBJ       6.409755      CON10     0.647151    
    y[2,2,2]  CON16     1.000000    
    y[2,3,1]  OBJ       6.811727      CON9      1.226845    
    y[2,3,1]  CON17     1.000000    
    y[2,3,2]  OBJ       6.971482      CON10     0.653071    
    y[2,3,2]  CON18     1.000000    
    y[3,1,1]  OBJ       7.361282      CON11     1.087647    
    y[3,1,1]  CON13     1.000000    
    y[3,1,2]  OBJ       6.732477      CON12     1.062108    
    y[3,1,2]  CON14     1.000000    
    y[3,2,1]  OBJ       8.155048      CON11     0.550946    
    y[3,2,1]  CON15     1.000000    
    y[3,2,2]  OBJ       8.630076      CON12     0.647151    
    y[3,2,2]  CON16     1.000000    
    y[3,3,1]  OBJ       7.859492      CON11     1.226845    
    y[3,3,1]  CON17     1.000000    
    y[3,3,2]  OBJ       7.024335      CON12     0.653071    
    y[3,3,2]  CON18     1.000000    
    z[1,1]    OBJ       562.443412    CON13     1.000000    
    z[1,2]    OBJ       853.825627    CON14     1.000000    
    z[2,1]    OBJ       782.651183    CON15     1.000000    
    z[2,2]    OBJ       999.043559    CON16     1.000000    
    z[3,1]    OBJ       720.206945    CON17     1.000000    
    z[3,2]    OBJ       585.569010    CON18     1.000000    
    MARKER    'MARKER'                 'INTEND'
RHS
    RHS       CON1      -0.000000     CON2      -0.000000   
    RHS       CON3      -0.000000     CON4      -0.000000   
    RHS       CON5      -0.000000     CON6      -0.000000   
    RHS       CON7      -0.000000     CON8      -0.000000   
    RHS       CON9      -0.000000     CON10     -0.000000   
    RHS       CON11     -0.000000     CON12     -0.000000   
    RHS       CON13     1.000000      CON14     1.000000    
    RHS       CON15     1.000000      CON16     1.000000    
    RHS       CON17     1.000000      CON18     1.000000    
BOUNDS
 BV BOUND     u[1,1]  
 BV BOUND     u[1,2]  
 BV BOUND     u[2,1]  
 BV BOUND     u[2,2]  
 BV BOUND     u[3,1]  
 BV BOUND     u[3,2]  
 BV BOUND     y[1,1,1]
 BV BOUND     y[1,1,2]
 BV BOUND     y[1,2,1]
 BV BOUND     y[1,2,2]
 BV BOUND     y[1,3,1]
 BV BOUND     y[1,3,2]
 BV BOUND     y[2,1,1]
 BV BOUND     y[2,1,2]
 BV BOUND     y[2,2,1]
 BV BOUND     y[2,2,2]
 BV BOUND     y[2,3,1]
 BV BOUND     y[2,3,2]
 BV BOUND     y[3,1,1]
 BV BOUND     y[3,1,2]
 BV BOUND     y[3,2,1]
 BV BOUND     y[3,2,2]
 BV BOUND     y[3,3,1]
 BV BOUND     y[3,3,2]
 BV BOUND     z[1,1]  
 BV BOUND     z[1,2]  
 BV BOUND     z[2,1]  
 BV BOUND     z[2,2]  
 BV BOUND     z[3,1]  
 BV BOUND     z[3,2]  
ENDATA
